5 5
3 74 1 55 2 69 0 40 4 14
0 98 4 28 3 72 2 80 1 95
3 71 2 67 0 29 1 61 4 68
3 9 1 17 2 49 4 63 0 84
1 78 4 46 0 93 2 13 3 45
-1
0 1 3 4 5
0 2 5
0 2 3 4 5
0 2 3 4 5
0 1 2 3 5
-2
99 198 243 400
151 532
205 265 266 352
33 102 165 312
86 142 312 289

433 9
5 12 22 19 3
16 20 13 1 9
17 11 8 2 23
15 10 0 7 24
6 21 18 14 4
